Generated3SAT/uf5-14/uf5-13.cnf
p cnf 5 14
3 -2 -4 0
1 2 4 0
2 3 5 0
2 1 5 0
-4 -1 5 0
5 3 -1 0
-1 5 -2 0
-4 3 -2 0
3 1 -4 0
3 5 -4 0
-1 2 -4 0
5 -4 3 0
5 1 -4 0
5 1 -4 0
%
0