Generated3SAT/uf5-18/prompts/complex/uf5-13.txt
Please solve the following SAT Problem encoded in DIMACS format, provide line of thoughts, write your final answer as a single solution at the end of response with header 'answer: ' : 
p cnf 5 18
-4 2 1 0
2 -3 1 0
-5 -3 -2 0
1 4 2 0
-4 1 2 0
-3 1 -5 0
-3 1 -4 0
-3 1 4 0
-4 3 5 0
-3 -4 -2 0
-5 2 -4 0
-1 -5 2 0
1 -4 3 0
-5 -1 -4 0
-1 -3 -5 0
5 -4 1 0
-4 1 2 0
3 2 -5 0

